x05m05e0t1tp5_04
3221
3221
3221
3632
3632
3632
3632
3632
3632
3632
3632
3632
3632
3632
3632
3632
3632
3632
3632
3632
3632
3632
3632
3632
3632
3632
3632
3632
3632
3632
3632
3632
3632
3632
3632
3632
3632
3632
3632
3632
3632
3632
3632
3632
3632
3632
3632
3632
3632
3632
3632
3632
3632
3632
3632
3632
3632
3632
3632
3632
3632
3632
3632
3632
3632
3632
3632
3632
3632
3632
3632
3632
3632
3632
3632
3632
3632
3632
3632
3632
3632
3632
3632
3632
3632
3632
3632
3632
3632
3632
3632
3632
3632
3632
3632
3632
3632
3632
3632
3632
3632
3632
3632
3632
3632
3632
3632
3632
3632
3632
3632
3632
3632
3632
3632
3632
3632
3632
3632
3632
3632
3632
3632
3632
3632
3632
3632
3632
3632
3632
3632
3632
3632
3632
3632
3632
3632
3632
3632
3632
3632
3632
3632
3632
3632
3632
3632
3632
3632
3632
3632
3632
3632
3632
3632
3632
3632
3632
3632
3632
3632
3632
3632
3632
3632
3632
3632
3632
3632
3632
3632
3632
3632
3632
3632
3632
3632
3632
3632
3632
3632
3632
3632
3632
3632
3632
3632
3632
3632
3632
3632
3632
3632
3632
3632
3632
3632
3632
3632
3632
3632
3632
3632
3632
3632
3632
3632
3632
3632
3632
3632
3632
3632
3632
3632
3632
3632
3632
3632
3632
3632
3632
3632
3632
3632
3632
3632
3632
3632
3632
3632
3632
3632
3632
3632
3632
3632
3632
3632
3632
3632
3632
3632
3632
3632
3632
3632
3632
3632
3632
3632
3632
3632
3632
3632
3632
3632
3632
3632
3632
3632
3632
3632
3632
3632
3632
3632
3632
3632
3632
3632
3632
3632
3632
3632
3632
3632
3632
3632
3632
3632
3632
3632
3632
3632
3632
3632
3632
3632
3632
3632
3632
3632
3632
3632
3632
3632
3632
3632
3632
3632
3632
3632
3632
3632
3632
3632
3632
3632
3632
3632
3632
3632
3632
3632
3632
3632
3632
3632
3632
3632
3632
3632
3632
3632
3632
3632
3632
3632
3632
3632
3632
3632
3632
3632
3632
3632
3632
3632
3632
3632
3632
3632
3632
3632
3632
3632
3632
3632
3632
3632
3632
3632
3632
3632
3632
3632
3632
3632
3632
3632
3632
3632
3632
3632
3632
3632
3632
3632
3632
3632
3632
3632
3632
3632
3632
3632
3632
3632
3632
3632
3632
3632
3632
3632
3632
3632
3632
3632
3632
3632
3632
3632
3632
3632
3632
3632
3632
3632
3632
3632
3632
3632
3632
3632
3632
3632
3632
3632
3632
3632
3632
3632
3632
3632
3632
3632
3632
3632
3632
3632
3632
3632
3632
3632
3632
3632
3632
3632
3632
3632
3632
3632
3632
3632
3632
3632
3632
3632
3632
3632
3632
3632
3632
3632
3632
3632
3632
3632
3632
3632
3632
3632
3632
3632
3632
3632
3632
3632
3632
3632
3632
3632
3632
3632
3632
3632
3632
3632
3632
3632
3632
3632
3632
3632
3632
3632
3632
3632
3632
3632
3632
3632
3632
3632
3632
3632
3632
3632
3632
3632
3632
3632
3632
3632
3632
3632
3632
3632
3632
3632
3632
3632
3632
3632
3632
3632
3632
3632
3632
3632
3632
3632
3632
3632
3632
3632
3632
3632
3632
3632
3632
3632
3632
3632
3632
3632
3632
3632
3632
3632
3632
3632
3632
3632
3632
3632
3632
3632
3632
3632
3632
3632
3632
3632
3632
3632
3632
3632
3632
3632
3632
3632
3632
3632
3632
3632
3632
3632
3632
3632
3632
3632
3632
3632
3632
3632
3632
3632
3632
3632
3632
3632
3632
3632
3632
3632
3632
3632
3632
3632
3632
3632
3632
3632
3632
3632
3632
3632
3632
3632
3632
3632
3632
3632
3632
3632
3632
3632
3632
3632
3632
3632
3632
3632
3632
3632
3632
3632
3632
3632
3632
3632
3632
3632
3632
3632
3632
3632
3632
3632
3632
3632
3632
3632
3632
3632
3632
3632
3632
3632
3632
3632
3632
3632
3632
3632
3632
3632
3632
3632
3632
3632
3632
3632
3632
3632
3632
3632
3632
3632
3632
3632
3632
3632
3632
3632
3632
3632
3632
3632
3632
3632
3632
3632
3632
3632
3632
3632
3632
3632
3632
3632
3632
3632
3632
3632
3632
3632
3632
3632
3632
3632
3632
3632
3632
3632
3632
3632
3632
3632
3632
3632
3632
3632
3632
3632
3632
3632
3632
3632
3632
3632
3632
3632
3632
3632
3632
3632
3632
3632
3632
3632
3632
3632
3632
3632
3632
3632
3632
3632
3632
3632
3632
3632
3632
3632
3632
3632
3632
3632
3632
3632
3632
3632
3632
3632
3632
3632
3632
3632
3632
3632
3632
3632
3632
3632
3632
3632
3632
3632
3632
3632
3632
3632
3632
3632
3632
3632
3632
3632
3632
3632
3632
3632
3632
3632
3632
3632
3632
3632
3632
3632
3632
3632
3632
3632
3632
3632
3632
3632
3632
3632
3632
3632
3632
3632
3632
3632
3632
3632
3632
3632
3632
3632
3632
3632
3632
3632
3632
3632
3632
3632
3632
3632
3632
3632
3632
3632
3632
3632
3632
3632
3632
3632
3632
3632
3632
3632
3632
3632
3632
3632
3632
3632
3632
3632
3632
3632
3632
3632
3632
3632
3632
3632
3632
3632
3632
3632
3632
3632
3632
3632
3632
3632
3632
3632
3632
3632
3632
3632
3632
3632
3632
3632
3632
3632
3632
3632
3632
3632
3632
3632
3632
3632
3632
3632
3632
3632
3632
3632
3632
3632
3632
3632
3632
3632
3632
3632
3632
3632
3632
3632
3632
3632
3632
3632
3632
3632
3632
3632
3632
3632
3632
3632
3632
3632
3632
3632
3632
3632
3632
3632
3632
3632
3632
3632
3632
3632
3632
3632
3632
3632
3632
3632
3632
3632
3632
3632
3632
3632
3632
3632
3632
3632
3632
3632
3632
3632
3632
3632
3632
3632
3632
3632
3632
3632
3632
3632
3632
3632
3632
3632
3632
3632
3632
3632
3632
3632
3632
3632
3632
3632
3632
3632
3632
3632
3632
3632
3632
3632
3632
3632
3632
3632
3632
3632
3632
3632
3632
3632
3632
3737
3737
3737
3737
3737
3737
3737
3737
3737
3737
3737
3737
3737
3737
3737
3737
3737
3737
3737
3737
3737
3737
3737
3737
3737
3737
3737
3737
